NPROCS=0
This instance is clustered!
Gurobi Optimizer version 9.0.0 build v9.0.0rc2 (linux64)
Optimize a model with 26 rows, 170 columns and 338 nonzeros
Model fingerprint: 0xccd6f340
Variable types: 1 continuous, 169 integer (169 binary)
Coefficient statistics:
  Matrix range     [1e+00, 1e+00]
  Objective range  [1e+00, 1e+02]
  Bounds range     [1e+00, 1e+00]
  RHS range        [1e+00, 1e+00]
Presolve removed 2 rows and 36 columns
Presolve time: 0.00s
Presolved: 24 rows, 134 columns, 266 nonzeros
Variable types: 1 continuous, 133 integer (133 binary)

Root relaxation: objective 3.095823e+02, 24 iterations, 0.00 seconds

    Nodes    |    Current Node    |     Objective Bounds      |     Work
 Expl Unexpl |  Obj  Depth IntInf | Incumbent    BestBd   Gap | It/Node Time

     0     0  309.58230    0   10          -  309.58230      -     -    0s
H    0     0                     519.6526468  309.58230  40.4%     -    0s
     0     0  314.86176    0   20  519.65265  314.86176  39.4%     -    0s
H    0     0                     443.6931434  314.86176  29.0%     -    0s
     0     0  350.45948    0   22  443.69314  350.45948  21.0%     -    0s
     0     0  350.80791    0   15  443.69314  350.80791  20.9%     -    0s
H    0     0                     393.3520208  350.80791  10.8%     -    0s
H    0     0                     389.7738795  352.60740  9.54%     -    0s
     0     0  352.60740    0   27  389.77388  352.60740  9.54%     -    0s
     0     0  352.71837    0   30  389.77388  352.71837  9.51%     -    0s
     0     0  352.96886    0   33  389.77388  352.96886  9.44%     -    0s
     0     0  353.08787    0   32  389.77388  353.08787  9.41%     -    0s
     0     0  353.14782    0   33  389.77388  353.14782  9.40%     -    0s
     0     0  353.15347    0   33  389.77388  353.15347  9.40%     -    0s
     0     0  353.16834    0   34  389.77388  353.16834  9.39%     -    0s
     0     0  353.17474    0   35  389.77388  353.17474  9.39%     -    0s
     0     0  353.17474    0   35  389.77388  353.17474  9.39%     -    0s
     0     2  357.06486    0   35  389.77388  357.06486  8.39%     -    0s

Cutting planes:
  Gomory: 2
  MIR: 7
  Zero half: 1
  RLT: 1
  Lazy constraints: 15

Explored 114 nodes (685 simplex iterations) in 0.14 seconds
Thread count was 12 (of 12 available processors)

Solution count 4: 389.774 393.352 443.693 519.653 

Optimal solution found (tolerance 1.00e-04)
Best objective 3.897738794550e+02, best bound 3.897738794550e+02, gap 0.0000%

User-callback calls 456, time in user-callback 0.00 sec
/projects/academic/josewalt/caigao/RRARP_BD/BendersDecomp/ret/model_outs/n_11_e_2_algo_3.out
 =====>>>>> Solution is written to file in <../ret/model_outs> !!!
===>> All Done!
